39 23 95 27 96 43 68 31 73 97 28 34 57 6 18 45 93 65 86 1 90 30 82 36 41 75 64 91 42 77 37 70 33 49 8 25 4 60 12 15 98 63 81 0 83 88 35 72 19 52 17 79 20 92 3 55 99 74 71 24 40 54 84 76 53 46 89 5 87 47 16 21 32 44 38 22 61 51 26 62 59 94 9 29 11 7 66 56 67 58 14 80 13 69 50 48 78 10 85 2